c read Graph
c width = 87
c time = 403 ms
c width = 5
c time = 554 ms
c width = 5
c time = 4003 ms
s td 96 6 100
b 1 1 2 21
b 2 2 3 21 22
b 3 18 19 39 40
b 4 3 21 22 41
b 5 18 39 40 60
b 6 41 61 62 82
b 7 60 79 80 99
b 8 41 62 82 83
b 9 60 79 98 99
b 10 3 4 5 24
b 11 5 6 7 26
b 12 7 8 9 28
b 13 9 10 11 30
b 14 11 12 13 32
b 15 13 14 15 34
b 16 15 16 17 36
b 17 3 22 23 41 42
b 18 18 38 39 59 60
b 19 17 18 38 59 60
b 20 41 42 62 63 83
b 21 59 60 78 79 98
b 22 41 42 63 83 84
b 23 65 84 85 86
b 24 67 86 87 88
b 25 69 88 89 90
b 26 71 90 91 92
b 27 73 92 93 94
b 28 75 94 95 96
b 29 77 96 97 98
b 30 5 24 25 26 45
b 31 7 26 27 28 47
b 32 9 28 29 30 49
b 33 11 30 31 32 51
b 34 13 32 33 34 53
b 35 15 34 35 36 55
b 36 17 36 37 38 57
b 37 38 57 58 59 78
b 38 17 38 59 60 78 98
b 39 17 38 57 59 78 98
b 40 17 36 38 57 78 98
b 41 17 36 57 77 78 98
b 42 15 17 36 57 77 98
b 43 15 36 56 57 77 98
b 44 56 75 76 77 96
b 45 15 36 56 77 96 98
b 46 15 36 56 75 77 96
b 47 15 36 55 56 75 96
b 48 15 34 36 55 75 96
b 49 13 15 34 55 75 96
b 50 13 34 54 55 75 96
b 51 54 73 74 75 94
b 52 13 34 54 75 94 96
b 53 13 34 54 73 75 94
b 54 13 34 53 54 73 94
b 55 13 32 34 53 73 94
b 56 11 13 32 53 73 94
b 57 11 32 52 53 73 94
b 58 52 71 72 73 92
b 59 11 32 52 73 92 94
b 60 11 32 52 71 73 92
b 61 11 32 51 52 71 92
b 62 11 30 32 51 71 92
b 63 9 11 30 51 71 92
b 64 9 30 50 51 71 92
b 65 50 69 70 71 90
b 66 9 30 50 71 90 92
b 67 9 30 50 69 71 90
b 68 9 30 49 50 69 90
b 69 9 28 30 49 69 90
b 70 7 9 28 49 69 90
b 71 7 28 48 49 69 90
b 72 48 67 68 69 88
b 73 7 28 48 69 88 90
b 74 7 28 48 67 69 88
b 75 7 28 47 48 67 88
b 76 7 26 28 47 67 88
b 77 5 7 26 47 67 88
b 78 5 26 46 47 67 88
b 79 46 65 66 67 86
b 80 5 26 46 67 86 88
b 81 5 26 46 65 67 86
b 82 5 26 45 46 65 86
b 83 5 24 26 45 65 86
b 84 3 5 24 45 65 86
b 85 3 24 44 45 65 86
b 86 3 23 24 44 65 86
b 87 23 42 43 44 63
b 88 44 63 64 65 84
b 89 3 23 44 65 84 86
b 90 3 23 41 42 63 84
b 91 3 23 42 44 63 84
b 92 3 23 44 63 65 84
b 93 44 63 65 84
b 94 80 99 100
b 95 61 81 82
b 96 19 20 40
1 2
2 4
3 96
3 5
4 17
5 18
6 95
6 8
7 94
7 9
8 20
9 21
10 84
11 77
12 70
13 63
14 56
15 49
16 42
17 90
18 19
19 38
20 22
21 38
22 90
23 89
24 80
25 73
26 66
27 59
28 52
29 45
30 83
31 76
32 69
33 62
34 55
35 48
36 40
37 39
38 39
39 40
40 41
41 42
42 43
43 45
44 46
45 46
46 47
47 48
48 49
49 50
50 52
51 53
52 53
53 54
54 55
55 56
56 57
57 59
58 60
59 60
60 61
61 62
62 63
63 64
64 66
65 67
66 67
67 68
68 69
69 70
70 71
71 73
72 74
73 74
74 75
75 76
76 77
77 78
78 80
79 81
80 81
81 82
82 83
83 84
84 85
85 86
86 89
87 91
88 93
89 92
90 91
91 92
92 93
